100
128
10
5
22
51
18
7
16
43
56
26
1
3
5
43
40
9
17
62
17
50
10
53
9
17
12
42
25
36
13
37
19
30
4
10
45
37
28
22
64
23
34
14
22
34
15
13
39
34
37
12
45
46
41
2
51
4
7
48
54
49
17
18
35
26
39
58
60
31
25
40
27
31
20
38
59
3
52
19
35
33
21
20
52
47
45
10
20
19
51
50
38
32
28
40
5
57
4
7
64
5